(declare-fun temp1203_1 () (_ BitVec 64))
(declare-fun var68976 () (_ BitVec 64))
(declare-fun temp1203_2 () (_ BitVec 64))
(declare-fun temp1203_3 () (_ BitVec 64))
(declare-fun temp1203_4 () (_ BitVec 64))
(declare-fun ARGNAME_w_ih_NAMEEND_DIMSIZE
             ()
             (Array (_ BitVec 64) (_ BitVec 64)))
(declare-fun temp1203_5 () (_ BitVec 64))
(declare-fun temp1203_6 () (_ BitVec 64))
(declare-fun temp1203_7 () (_ BitVec 64))
(declare-fun temp1203_8 () (_ BitVec 64))
(declare-fun temp1203_9 () (_ BitVec 64))
(declare-fun temp1203_10 () (_ BitVec 64))
(declare-fun temp1203_11 () (_ BitVec 64))
(declare-fun temp1203_12 () (_ BitVec 64))
(declare-fun temp1203_13 () (_ BitVec 64))
(declare-fun temp1203_14 () (_ BitVec 64))
(declare-fun temp1203_15 () (_ BitVec 64))
(declare-fun temp1203_16 () (_ BitVec 64))
(declare-fun temp1203_17 () (_ BitVec 64))
(declare-fun temp1203_18 () (_ BitVec 64))
(declare-fun temp1203_19 () (_ BitVec 64))
(declare-fun temp1203_20 () (_ BitVec 64))
(declare-fun temp1203_21 () (_ BitVec 64))
(declare-fun temp1203_22 () (_ BitVec 64))
(declare-fun var77378 () (_ BitVec 64))
(declare-fun temp1203_23 () (_ BitVec 64))
(declare-fun temp1203_24 () (_ BitVec 64))
(declare-fun temp1203_25 () (_ BitVec 64))
(declare-fun ARGNAME_input_NAMEEND_DIMSIZE
             ()
             (Array (_ BitVec 64) (_ BitVec 64)))
(declare-fun temp1203_26 () (_ BitVec 64))
(declare-fun temp1203_27 () (_ BitVec 64))
(declare-fun temp1203_28 () (_ BitVec 64))
(declare-fun temp1203_29 () (_ BitVec 64))
(declare-fun temp1203_30 () (_ BitVec 64))
(declare-fun temp1203_31 () (_ BitVec 64))
(declare-fun temp1203_32 () (_ BitVec 64))
(declare-fun temp1203_33 () (_ BitVec 64))
(declare-fun temp1203_34 () (_ BitVec 64))
(declare-fun temp1203_35 () (_ BitVec 64))
(declare-fun temp1203_36 () (_ BitVec 64))
(declare-fun temp1203_37 () (_ BitVec 64))
(declare-fun temp1203_38 () (_ BitVec 64))
(declare-fun temp1203_39 () (_ BitVec 64))
(declare-fun temp1203_40 () (_ BitVec 64))
(declare-fun temp1203_41 () (_ BitVec 64))
(declare-fun temp1203_42 () (_ BitVec 64))
(declare-fun temp1203_43 () (_ BitVec 64))
(declare-fun temp1203_44 () (_ BitVec 64))
(declare-fun temp1203_45 () (_ BitVec 64))
(declare-fun var404256 () (_ BitVec 64))
(declare-fun k!0 () Bool)
(declare-fun ARGNAME_w_ih_NAMEEND_DIM () (_ BitVec 64))
(declare-fun k!1 () (_ BitVec 64))
(declare-fun k!2 () (_ BitVec 64))
(declare-fun k!3 () Bool)
(declare-fun k!4 () Bool)
(declare-fun ARGNAME_input_NAMEEND_DIM () (_ BitVec 64))
(declare-fun temp1203_46 () (_ BitVec 64))
(declare-fun temp1203_47 () (_ BitVec 64))
(declare-fun temp1203_48 () (_ BitVec 64))
(declare-fun ARGNAME_w_hh_NAMEEND_DIMSIZE
             ()
             (Array (_ BitVec 64) (_ BitVec 64)))
(declare-fun temp1203_49 () (_ BitVec 64))
(declare-fun temp1203_50 () (_ BitVec 64))
(declare-fun temp1203_51 () (_ BitVec 64))
(declare-fun temp1203_52 () (_ BitVec 64))
(declare-fun temp1203_53 () (_ BitVec 64))
(declare-fun temp1203_54 () (_ BitVec 64))
(declare-fun temp1203_55 () (_ BitVec 64))
(declare-fun temp1203_56 () (_ BitVec 64))
(declare-fun temp1203_57 () (_ BitVec 64))
(declare-fun temp1203_58 () (_ BitVec 64))
(declare-fun temp1203_59 () (_ BitVec 64))
(declare-fun temp1203_60 () (_ BitVec 64))
(declare-fun temp1203_61 () (_ BitVec 64))
(declare-fun temp1203_62 () (_ BitVec 64))
(declare-fun temp1203_63 () (_ BitVec 64))
(declare-fun temp1203_64 () (_ BitVec 64))
(declare-fun temp1203_65 () (_ BitVec 64))
(declare-fun ARGNAME_w_hh_NAMEEND_DIM () (_ BitVec 64))
(declare-fun temp1203_66 () (_ BitVec 64))
(declare-fun temp1203_67 () (_ BitVec 64))
(declare-fun var77383 () (_ BitVec 64))
(declare-fun temp1203_68 () (_ BitVec 64))
(declare-fun temp1203_69 () (_ BitVec 64))
(declare-fun temp1203_70 () (_ BitVec 64))
(declare-fun temp1203_71 () (_ BitVec 64))
(declare-fun temp1203_72 () (_ BitVec 64))
(declare-fun ARGNAME_hx_NAMEEND_DIMSIZE () (Array (_ BitVec 64) (_ BitVec 64)))
(declare-fun temp1203_73 () (_ BitVec 64))
(declare-fun temp1203_74 () (_ BitVec 64))
(declare-fun temp1203_75 () (_ BitVec 64))
(declare-fun temp1203_76 () (_ BitVec 64))
(declare-fun temp1203_77 () (_ BitVec 64))
(declare-fun temp1203_78 () (_ BitVec 64))
(declare-fun temp1203_79 () (_ BitVec 64))
(declare-fun temp1203_80 () (_ BitVec 64))
(declare-fun temp1203_81 () (_ BitVec 64))
(declare-fun temp1203_82 () (_ BitVec 64))
(declare-fun temp1203_83 () (_ BitVec 64))
(declare-fun temp1203_84 () (_ BitVec 64))
(declare-fun temp1203_85 () (_ BitVec 64))
(declare-fun temp1203_86 () (_ BitVec 64))
(declare-fun temp1203_87 () (_ BitVec 64))
(declare-fun temp1203_88 () (_ BitVec 64))
(declare-fun temp1203_89 () (_ BitVec 64))
(declare-fun temp1203_90 () (_ BitVec 64))
(declare-fun temp1203_91 () (_ BitVec 64))
(declare-fun ARGNAME_hx_NAMEEND_DIM () (_ BitVec 64))
(declare-fun var666568 () (_ BitVec 64))
(declare-fun temp1203_92 () (_ BitVec 64))
(declare-fun temp1203_93 () (_ BitVec 64))
(declare-fun temp1203_94 () (_ BitVec 64))
(declare-fun temp1203_95 () (_ BitVec 64))
(declare-fun temp1203_96 () (_ BitVec 64))
(declare-fun var666637 () (_ BitVec 64))
(declare-fun temp1203_97 () (_ BitVec 64))
(declare-fun temp1203_99 () (_ BitVec 64))
(declare-fun temp1203_98 () (_ BitVec 64))
(declare-fun temp1203_100 () (_ BitVec 64))
(declare-fun var1580472 () (_ BitVec 64))
(declare-fun temp1203_101 () (_ BitVec 64))
(declare-fun temp1203_102 () (_ BitVec 64))
(declare-fun var2428993 () (_ BitVec 64))
(declare-fun temp1203_103 () (_ BitVec 64))
(declare-fun var2428994 () (_ BitVec 64))
(declare-fun temp1203_104 () (_ BitVec 64))
(declare-fun var2560065 () (_ BitVec 64))
(declare-fun temp1203_105 () (_ BitVec 64))
(declare-fun var2560066 () (_ BitVec 64))
(declare-fun temp1203_106 () (_ BitVec 64))
(declare-fun var2691147 () (_ BitVec 64))
(declare-fun temp1203_107 () (_ BitVec 64))
(declare-fun var2756692 () (_ BitVec 64))
(declare-fun temp1203_108 () (_ BitVec 64))
(declare-fun var2821961 () (_ BitVec 64))
(declare-fun temp1203_109 () (_ BitVec 64))
(declare-fun var3084363 () (_ BitVec 64))
(declare-fun temp1203_110 () (_ BitVec 64))
(declare-fun var3149908 () (_ BitVec 64))
(declare-fun temp1203_111 () (_ BitVec 64))
(declare-fun var3215177 () (_ BitVec 64))
(declare-fun temp1203_112 () (_ BitVec 64))
(declare-fun var3477588 () (_ BitVec 64))
(declare-fun temp1203_113 () (_ BitVec 64))
(declare-fun var3543115 () (_ BitVec 64))
(declare-fun temp1203_114 () (_ BitVec 64))
(declare-fun var3673929 () (_ BitVec 64))
(declare-fun temp1203_115 () (_ BitVec 64))
(declare-fun var4067145 () (_ BitVec 64))
(declare-fun temp1203_116 () (_ BitVec 64))
(declare-fun var4329289 () (_ BitVec 64))
(assert (= temp1203_1 #x0000000000000001))
(assert (= var68976 temp1203_1))
(assert (= temp1203_2 #x0000000000000000))
(assert (= temp1203_3 temp1203_2))
(assert (= temp1203_4 (select ARGNAME_w_ih_NAMEEND_DIMSIZE temp1203_3)))
(assert (= temp1203_5 #x0000000000000001))
(assert (= temp1203_6 temp1203_5))
(assert (= temp1203_7 (select ARGNAME_w_ih_NAMEEND_DIMSIZE temp1203_6)))
(assert (= temp1203_8 #x0000000000000002))
(assert (= temp1203_9 temp1203_8))
(assert (= temp1203_10 (select ARGNAME_w_ih_NAMEEND_DIMSIZE temp1203_9)))
(assert (= temp1203_11 #x0000000000000003))
(assert (= temp1203_12 temp1203_11))
(assert (= temp1203_13 (select ARGNAME_w_ih_NAMEEND_DIMSIZE temp1203_12)))
(assert (= temp1203_14 #x0000000000000004))
(assert (= temp1203_15 temp1203_14))
(assert (= temp1203_16 (select ARGNAME_w_ih_NAMEEND_DIMSIZE temp1203_15)))
(assert (= temp1203_17 #x0000000000000005))
(assert (= temp1203_18 temp1203_17))
(assert (= temp1203_19 (select ARGNAME_w_ih_NAMEEND_DIMSIZE temp1203_18)))
(assert (= temp1203_20 #x0000000000000000))
(assert (= temp1203_21
   (ite (bvslt var68976 temp1203_20)
        (bvadd ARGNAME_w_ih_NAMEEND_DIM var68976)
        var68976)))
(assert (= temp1203_22 (select ARGNAME_w_ih_NAMEEND_DIMSIZE temp1203_21)))
(assert (= var77378 temp1203_22))
(assert (bvslt (ite (bvslt var68976 temp1203_20)
            (bvadd ARGNAME_w_ih_NAMEEND_DIM var68976)
            var68976)
       ARGNAME_w_ih_NAMEEND_DIM))
(assert (= temp1203_23 #x0000000000000000))
(assert (= temp1203_24 temp1203_23))
(assert (= temp1203_25 (select ARGNAME_input_NAMEEND_DIMSIZE temp1203_24)))
(assert (= temp1203_26 #x0000000000000001))
(assert (= temp1203_27 temp1203_26))
(assert (= temp1203_28 (select ARGNAME_input_NAMEEND_DIMSIZE temp1203_27)))
(assert (= temp1203_29 #x0000000000000002))
(assert (= temp1203_30 temp1203_29))
(assert (= temp1203_31 (select ARGNAME_input_NAMEEND_DIMSIZE temp1203_30)))
(assert (= temp1203_32 #x0000000000000003))
(assert (= temp1203_33 temp1203_32))
(assert (= temp1203_34 (select ARGNAME_input_NAMEEND_DIMSIZE temp1203_33)))
(assert (= temp1203_35 #x0000000000000004))
(assert (= temp1203_36 temp1203_35))
(assert (= temp1203_37 (select ARGNAME_input_NAMEEND_DIMSIZE temp1203_36)))
(assert (= temp1203_38 #x0000000000000005))
(assert (= temp1203_39 temp1203_38))
(assert (= temp1203_40 (select ARGNAME_input_NAMEEND_DIMSIZE temp1203_39)))
(assert (= temp1203_41 #x0000000000000001))
(assert (= temp1203_42 temp1203_41))
(assert (= temp1203_43 (select ARGNAME_input_NAMEEND_DIMSIZE temp1203_42)))
(assert (bvsgt ARGNAME_input_NAMEEND_DIM temp1203_41))
(assert (bvsge temp1203_41 (bvneg ARGNAME_input_NAMEEND_DIM)))
(assert (= temp1203_44 var77378))
(assert (= var404256
   (ite (= temp1203_43 temp1203_44) #x0000000000000001 #x0000000000000000)))
(assert (= temp1203_45 #x0000000000000001))
(assert (= var404256 temp1203_45))
(assert (= temp1203_46 #x0000000000000001))
(assert (= var68976 temp1203_46))
(assert (= temp1203_47 #x0000000000000000))
(assert (= temp1203_48 temp1203_47))
(assert (= temp1203_49 (select ARGNAME_w_hh_NAMEEND_DIMSIZE temp1203_48)))
(assert (= temp1203_50 #x0000000000000001))
(assert (= temp1203_51 temp1203_50))
(assert (= temp1203_52 (select ARGNAME_w_hh_NAMEEND_DIMSIZE temp1203_51)))
(assert (= temp1203_53 #x0000000000000002))
(assert (= temp1203_54 temp1203_53))
(assert (= temp1203_55 (select ARGNAME_w_hh_NAMEEND_DIMSIZE temp1203_54)))
(assert (= temp1203_56 #x0000000000000003))
(assert (= temp1203_57 temp1203_56))
(assert (= temp1203_58 (select ARGNAME_w_hh_NAMEEND_DIMSIZE temp1203_57)))
(assert (= temp1203_59 #x0000000000000004))
(assert (= temp1203_60 temp1203_59))
(assert (= temp1203_61 (select ARGNAME_w_hh_NAMEEND_DIMSIZE temp1203_60)))
(assert (= temp1203_62 #x0000000000000005))
(assert (= temp1203_63 temp1203_62))
(assert (= temp1203_64 (select ARGNAME_w_hh_NAMEEND_DIMSIZE temp1203_63)))
(assert (= temp1203_65 #x0000000000000000))
(assert (= temp1203_66
   (ite (bvslt var68976 temp1203_65)
        (bvadd ARGNAME_w_hh_NAMEEND_DIM var68976)
        var68976)))
(assert (= temp1203_67 (select ARGNAME_w_hh_NAMEEND_DIMSIZE temp1203_66)))
(assert (= var77383 temp1203_67))
(assert (bvslt (ite (bvslt var68976 temp1203_65)
            (bvadd ARGNAME_w_hh_NAMEEND_DIM var68976)
            var68976)
       ARGNAME_w_hh_NAMEEND_DIM))
(assert (= temp1203_68 #x0000000000000000))
(assert (= temp1203_69 temp1203_68))
(assert (= temp1203_70 (select ARGNAME_input_NAMEEND_DIMSIZE temp1203_69)))
(assert (bvsgt ARGNAME_input_NAMEEND_DIM temp1203_68))
(assert (bvsge temp1203_68 (bvneg ARGNAME_input_NAMEEND_DIM)))
(assert (= temp1203_71 #x0000000000000000))
(assert (= temp1203_72 temp1203_71))
(assert (= temp1203_73 (select ARGNAME_hx_NAMEEND_DIMSIZE temp1203_72)))
(assert (= temp1203_74 #x0000000000000001))
(assert (= temp1203_75 temp1203_74))
(assert (= temp1203_76 (select ARGNAME_hx_NAMEEND_DIMSIZE temp1203_75)))
(assert (= temp1203_77 #x0000000000000002))
(assert (= temp1203_78 temp1203_77))
(assert (= temp1203_79 (select ARGNAME_hx_NAMEEND_DIMSIZE temp1203_78)))
(assert (= temp1203_80 #x0000000000000003))
(assert (= temp1203_81 temp1203_80))
(assert (= temp1203_82 (select ARGNAME_hx_NAMEEND_DIMSIZE temp1203_81)))
(assert (= temp1203_83 #x0000000000000004))
(assert (= temp1203_84 temp1203_83))
(assert (= temp1203_85 (select ARGNAME_hx_NAMEEND_DIMSIZE temp1203_84)))
(assert (= temp1203_86 #x0000000000000005))
(assert (= temp1203_87 temp1203_86))
(assert (= temp1203_88 (select ARGNAME_hx_NAMEEND_DIMSIZE temp1203_87)))
(assert (= temp1203_89 #x0000000000000000))
(assert (= temp1203_90 temp1203_89))
(assert (= temp1203_91 (select ARGNAME_hx_NAMEEND_DIMSIZE temp1203_90)))
(assert (bvsgt ARGNAME_hx_NAMEEND_DIM temp1203_89))
(assert (bvsge temp1203_89 (bvneg ARGNAME_hx_NAMEEND_DIM)))
(assert (= var666568
   (ite (= temp1203_70 temp1203_91) #x0000000000000001 #x0000000000000000)))
(assert (= temp1203_92 #x0000000000000001))
(assert (= var666568 temp1203_92))
(assert (= temp1203_93 #x0000000000000001))
(assert (= temp1203_94 temp1203_93))
(assert (= temp1203_95 (select ARGNAME_hx_NAMEEND_DIMSIZE temp1203_94)))
(assert (bvsgt ARGNAME_hx_NAMEEND_DIM temp1203_93))
(assert (bvsge temp1203_93 (bvneg ARGNAME_hx_NAMEEND_DIM)))
(assert (= temp1203_96 var77383))
(assert (= var666637
   (ite (= temp1203_95 temp1203_96) #x0000000000000001 #x0000000000000000)))
(assert (= temp1203_97 #x0000000000000001))
(assert (= var666637 temp1203_97))
(assert (= temp1203_99 #x0000000000000000))
(assert (= temp1203_98 temp1203_99))
(assert (= temp1203_100 #x0000000000000000))
(assert (= var1580472 temp1203_100))
(assert (= temp1203_101 #x0000000000000000))
(assert (= var1580472 temp1203_101))
(assert (= temp1203_102 #x0000000000000003))
(assert (= var2428993 temp1203_102))
(assert (= temp1203_103 #x0000000000000001))
(assert (= var2428994 temp1203_103))
(assert (= temp1203_104 #x0000000000000003))
(assert (= var2560065 temp1203_104))
(assert (= temp1203_105 #x0000000000000001))
(assert (= var2560066 temp1203_105))
(assert (= temp1203_106 #x0000000000000000))
(assert (= var2691147 temp1203_106))
(assert (= temp1203_107 #x0000000000000000))
(assert (= var2756692 temp1203_107))
(assert (= temp1203_108 #x0000000000000001))
(assert (= var2821961 temp1203_108))
(assert (= temp1203_109 #x0000000000000001))
(assert (= var3084363 temp1203_109))
(assert (= temp1203_110 #x0000000000000001))
(assert (= var3149908 temp1203_110))
(assert (= temp1203_111 #x0000000000000001))
(assert (= var3215177 temp1203_111))
(assert (= temp1203_112 #x0000000000000002))
(assert (= var3477588 temp1203_112))
(assert (= temp1203_113 #x0000000000000002))
(assert (= var3543115 temp1203_113))
(assert (= temp1203_114 #x0000000000000001))
(assert (= var3673929 temp1203_114))
(assert (= temp1203_115 #x0000000000000001))
(assert (= var4067145 temp1203_115))
(assert (= temp1203_116 #x0000000000000001))
(assert (= var4329289 temp1203_116))
(model-add temp1203_1 () (_ BitVec 64) #x0000000000000001)
(model-add var68976 () (_ BitVec 64) #x0000000000000001)
(model-add temp1203_2 () (_ BitVec 64) #x0000000000000000)
(model-add temp1203_3 () (_ BitVec 64) #x0000000000000000)
(model-add temp1203_4
           ()
           (_ BitVec 64)
           (select ARGNAME_w_ih_NAMEEND_DIMSIZE #x0000000000000000))
(model-add temp1203_5 () (_ BitVec 64) #x0000000000000001)
(model-add temp1203_6 () (_ BitVec 64) #x0000000000000001)
(model-add temp1203_7
           ()
           (_ BitVec 64)
           (select ARGNAME_w_ih_NAMEEND_DIMSIZE #x0000000000000001))
(model-add temp1203_8 () (_ BitVec 64) #x0000000000000002)
(model-add temp1203_9 () (_ BitVec 64) #x0000000000000002)
(model-add temp1203_10
           ()
           (_ BitVec 64)
           (select ARGNAME_w_ih_NAMEEND_DIMSIZE #x0000000000000002))
(model-add temp1203_11 () (_ BitVec 64) #x0000000000000003)
(model-add temp1203_12 () (_ BitVec 64) #x0000000000000003)
(model-add temp1203_13
           ()
           (_ BitVec 64)
           (select ARGNAME_w_ih_NAMEEND_DIMSIZE #x0000000000000003))
(model-add temp1203_14 () (_ BitVec 64) #x0000000000000004)
(model-add temp1203_15 () (_ BitVec 64) #x0000000000000004)
(model-add temp1203_16
           ()
           (_ BitVec 64)
           (select ARGNAME_w_ih_NAMEEND_DIMSIZE #x0000000000000004))
(model-add temp1203_17 () (_ BitVec 64) #x0000000000000005)
(model-add temp1203_18 () (_ BitVec 64) #x0000000000000005)
(model-add temp1203_19
           ()
           (_ BitVec 64)
           (select ARGNAME_w_ih_NAMEEND_DIMSIZE #x0000000000000005))
(model-add temp1203_20 () (_ BitVec 64) #x0000000000000000)
(model-add temp1203_21 () (_ BitVec 64) #x0000000000000001)
(model-add temp1203_22
           ()
           (_ BitVec 64)
           (select ARGNAME_w_ih_NAMEEND_DIMSIZE #x0000000000000001))
(model-add var77378
           ()
           (_ BitVec 64)
           (select ARGNAME_w_ih_NAMEEND_DIMSIZE #x0000000000000001))
(model-add temp1203_23 () (_ BitVec 64) #x0000000000000000)
(model-add temp1203_24 () (_ BitVec 64) #x0000000000000000)
(model-add temp1203_25
           ()
           (_ BitVec 64)
           (select ARGNAME_input_NAMEEND_DIMSIZE #x0000000000000000))
(model-add temp1203_26 () (_ BitVec 64) #x0000000000000001)
(model-add temp1203_27 () (_ BitVec 64) #x0000000000000001)
(model-add temp1203_28
           ()
           (_ BitVec 64)
           (select ARGNAME_input_NAMEEND_DIMSIZE #x0000000000000001))
(model-add temp1203_29 () (_ BitVec 64) #x0000000000000002)
(model-add temp1203_30 () (_ BitVec 64) #x0000000000000002)
(model-add temp1203_31
           ()
           (_ BitVec 64)
           (select ARGNAME_input_NAMEEND_DIMSIZE #x0000000000000002))
(model-add temp1203_32 () (_ BitVec 64) #x0000000000000003)
(model-add temp1203_33 () (_ BitVec 64) #x0000000000000003)
(model-add temp1203_34
           ()
           (_ BitVec 64)
           (select ARGNAME_input_NAMEEND_DIMSIZE #x0000000000000003))
(model-add temp1203_35 () (_ BitVec 64) #x0000000000000004)
(model-add temp1203_36 () (_ BitVec 64) #x0000000000000004)
(model-add temp1203_37
           ()
           (_ BitVec 64)
           (select ARGNAME_input_NAMEEND_DIMSIZE #x0000000000000004))
(model-add temp1203_38 () (_ BitVec 64) #x0000000000000005)
(model-add temp1203_39 () (_ BitVec 64) #x0000000000000005)
(model-add temp1203_40
           ()
           (_ BitVec 64)
           (select ARGNAME_input_NAMEEND_DIMSIZE #x0000000000000005))
(model-add temp1203_41 () (_ BitVec 64) #x0000000000000001)
(model-add temp1203_42 () (_ BitVec 64) #x0000000000000001)
(model-add temp1203_43
           ()
           (_ BitVec 64)
           (select ARGNAME_input_NAMEEND_DIMSIZE #x0000000000000001))
(model-add temp1203_44
           ()
           (_ BitVec 64)
           (select ARGNAME_w_ih_NAMEEND_DIMSIZE #x0000000000000001))
(model-add temp1203_45 () (_ BitVec 64) #x0000000000000001)
(model-add var404256 () (_ BitVec 64) #x0000000000000001)
(model-del k!0)
(model-add ARGNAME_w_ih_NAMEEND_DIM
           ()
           (_ BitVec 64)
           (ite (or k!0 (= #x0000000000000001 #x7fffffffffffffff))
                #x0000000000000001
                (bvadd #x0000000000000001 #x0000000000000001)))
(model-del k!1)
(model-add ARGNAME_input_NAMEEND_DIMSIZE
           ()
           (Array (_ BitVec 64) (_ BitVec 64))
           ((as const (Array (_ BitVec 64) (_ BitVec 64))) k!1))
(model-del k!2)
(model-add ARGNAME_w_ih_NAMEEND_DIMSIZE
           ()
           (Array (_ BitVec 64) (_ BitVec 64))
           ((as const (Array (_ BitVec 64) (_ BitVec 64))) k!2))
(model-del k!3)
(model-add k!0 () Bool (not k!3))
(model-del k!4)
(model-add k!1 () (_ BitVec 64) (ite k!4 k!2 (bvnot k!2)))



